Al3 Sc1                                 
   1.00000000000000     
     4.1046969868448775    0.0000000000000000    0.0000000000000000
     0.0000000000000000    4.1046969868448775    0.0000000000000000
     0.0000000000000000    0.0000000000000000    4.1046969868448775
  Sc  Al
   1   3
Direct
  0.0000000000000000  0.0000000000000000  0.0000000000000000
  0.0000000000000000  0.5000000000000000  0.5000000000000000
  0.5000000000000000  0.0000000000000000  0.5000000000000000
  0.5000000000000000  0.5000000000000000  0.0000000000000000
 
  0.00000000E+00  0.00000000E+00  0.00000000E+00
  0.00000000E+00  0.00000000E+00  0.00000000E+00
  0.00000000E+00  0.00000000E+00  0.00000000E+00
  0.00000000E+00  0.00000000E+00  0.00000000E+00
